    bond_coeff   1         0.0   0.9572
    angle_coeff  1       0.0   104.52
    pair_coeff   1 1  0.18520  3.1589 
    pair_coeff   2 2  0.0     0.0
    pair_coeff   1 2  0.0     0.0
    group tip4p type  1  2
    fix fShakeTIP4P tip4p shake 0.0001 20 0 b 1 a 1

