    units        real
    atom_style   full
    pair_style   lj/cut/tip4p/long 1 2 1 1 0.1546 9.0
    pair_modify tail yes
    bond_style   harmonic
    angle_style  harmonic
    kspace_style pppm/tip4p 0.00001
